# Node Net
 20   1
1620   1
3569   1
2281   1
300   1
2640   2
3559   2
 34   2
 43   2
 33   2
3563   3
3001   3
3546   3
3567   3
3060   3
1321   4
 56   4
2401   4
1921   5
361   5
3420   5
 19   6
 14   6
3587   6
2761   7
  7   7
2280   7
3421   8
3579   8
1980   8
240   9
3596   9
3541   9
1981  10
3591  10
